

(declare-sort |dff_s| 0)
(declare-fun |dff_is| (|dff_s|) Bool)
(declare-fun |dff#0| (|dff_s|) Bool) 


(define-fun |dff_n CK| ((state |dff_s|)) Bool (|dff#0| state))
(declare-fun |dff#1| (|dff_s|) Bool) 


(define-fun |dff_n D| ((state |dff_s|)) Bool (|dff#1| state))
(define-fun |dff#2| ((state |dff_s|)) (_ BitVec 1) (bvnot (ite (|dff#0| state) #b1 #b0))) 
(define-fun |dff#3| ((state |dff_s|)) (_ BitVec 1) (ite (|dff#1| state) (|dff#2| state) #b0)) 
(define-fun |dff#4| ((state |dff_s|)) (_ BitVec 1) (ite (= ((_ extract 0 0) (|dff#3| state)) #b1) #b0 (ite (|dff#0| state) #b1 #b0))) 
(define-fun |dff#5| ((state |dff_s|)) (_ BitVec 1) (bvnot (|dff#4| state))) 

(define-fun |dff_n Q| ((state |dff_s|)) Bool (= ((_ extract 0 0) (|dff#5| state)) #b1))
(define-fun |dff_a| ((state |dff_s|)) Bool true)
(define-fun |dff_u| ((state |dff_s|)) Bool true)
(define-fun |dff_i| ((state |dff_s|)) Bool true)
(define-fun |dff_h| ((state |dff_s|)) Bool true)
(define-fun |dff_t| ((state |dff_s|) (next_state |dff_s|)) Bool true) 

(declare-sort |s420_s| 0)
(declare-fun |s420_is| (|s420_s|) Bool)
(declare-fun |s420#0| (|s420_s|) Bool) 


(define-fun |s420_n CK| ((state |s420_s|)) Bool (|s420#0| state))
(declare-fun |s420#1| (|s420_s|) Bool) 


(define-fun |s420_n C_0| ((state |s420_s|)) Bool (|s420#1| state))
(declare-fun |s420#2| (|s420_s|) Bool) 


(define-fun |s420_n C_1| ((state |s420_s|)) Bool (|s420#2| state))
(declare-fun |s420#3| (|s420_s|) Bool) 


(define-fun |s420_n C_10| ((state |s420_s|)) Bool (|s420#3| state))
(declare-fun |s420#4| (|s420_s|) Bool) 


(define-fun |s420_n C_11| ((state |s420_s|)) Bool (|s420#4| state))
(declare-fun |s420#5| (|s420_s|) Bool) 


(define-fun |s420_n C_12| ((state |s420_s|)) Bool (|s420#5| state))
(declare-fun |s420#6| (|s420_s|) Bool) 


(define-fun |s420_n C_13| ((state |s420_s|)) Bool (|s420#6| state))
(declare-fun |s420#7| (|s420_s|) Bool) 


(define-fun |s420_n C_14| ((state |s420_s|)) Bool (|s420#7| state))
(declare-fun |s420#8| (|s420_s|) Bool) 


(define-fun |s420_n C_15| ((state |s420_s|)) Bool (|s420#8| state))
(declare-fun |s420#9| (|s420_s|) Bool) 


(define-fun |s420_n C_16| ((state |s420_s|)) Bool (|s420#9| state))
(declare-fun |s420#10| (|s420_s|) Bool) 


(define-fun |s420_n C_2| ((state |s420_s|)) Bool (|s420#10| state))
(declare-fun |s420#11| (|s420_s|) Bool) 


(define-fun |s420_n C_3| ((state |s420_s|)) Bool (|s420#11| state))
(declare-fun |s420#12| (|s420_s|) Bool) 


(define-fun |s420_n C_4| ((state |s420_s|)) Bool (|s420#12| state))
(declare-fun |s420#13| (|s420_s|) Bool) 


(define-fun |s420_n C_5| ((state |s420_s|)) Bool (|s420#13| state))
(declare-fun |s420#14| (|s420_s|) Bool) 


(define-fun |s420_n C_6| ((state |s420_s|)) Bool (|s420#14| state))
(declare-fun |s420#15| (|s420_s|) Bool) 


(define-fun |s420_n C_7| ((state |s420_s|)) Bool (|s420#15| state))
(declare-fun |s420#16| (|s420_s|) Bool) 


(define-fun |s420_n C_8| ((state |s420_s|)) Bool (|s420#16| state))
(declare-fun |s420#17| (|s420_s|) Bool) 


(define-fun |s420_n C_9| ((state |s420_s|)) Bool (|s420#17| state))
(declare-fun |s420#18| (|s420_s|) Bool) 


(define-fun |s420_n GND| ((state |s420_s|)) Bool (|s420#18| state))
(declare-fun |s420#19| (|s420_s|) Bool) 


(define-fun |s420_n P_0| ((state |s420_s|)) Bool (|s420#19| state))
(declare-fun |s420#20| (|s420_s|) Bool) 


(define-fun |s420_n VDD| ((state |s420_s|)) Bool (|s420#20| state))


(declare-fun |s420#21| (|s420_s|) Bool) 
(declare-fun |s420_h DFF_1| (|s420_s|) |dff_s|)
(define-fun |s420#22| ((state |s420_s|)) (_ BitVec 1) (bvnot (ite (|s420#21| state) #b1 #b0))) 


(declare-fun |s420#23| (|s420_s|) Bool) 
(declare-fun |s420_h DFF_3| (|s420_s|) |dff_s|)
(define-fun |s420#24| ((state |s420_s|)) (_ BitVec 1) (bvnot (ite (|s420#23| state) #b1 #b0))) 
(define-fun |s420#25| ((state |s420_s|)) (_ BitVec 1) (bvand (|s420#24| state) (ite (|s420#19| state) #b1 #b0))) 


(declare-fun |s420#26| (|s420_s|) Bool) 
(declare-fun |s420_h DFF_2| (|s420_s|) |dff_s|)
(define-fun |s420#27| ((state |s420_s|)) (_ BitVec 1) (bvnot (ite (|s420#26| state) #b1 #b0))) 
(define-fun |s420#28| ((state |s420_s|)) (_ BitVec 1) (bvand (|s420#25| state) (|s420#27| state))) 
(define-fun |s420#29| ((state |s420_s|)) (_ BitVec 1) (bvnot (|s420#28| state))) 
(define-fun |s420#30| ((state |s420_s|)) (_ BitVec 1) (bvor (|s420#22| state) (|s420#29| state))) 
(define-fun |s420#31| ((state |s420_s|)) (_ BitVec 1) (bvnot (ite (|s420#11| state) #b1 #b0))) 
(define-fun |s420#32| ((state |s420_s|)) (_ BitVec 1) (bvor (|s420#30| state) (|s420#31| state))) 
(define-fun |s420#33| ((state |s420_s|)) (_ BitVec 1) (bvnot (|s420#25| state))) 
(define-fun |s420#34| ((state |s420_s|)) (_ BitVec 1) (bvor (|s420#27| state) (|s420#33| state))) 
(define-fun |s420#35| ((state |s420_s|)) (_ BitVec 1) (bvnot (ite (|s420#10| state) #b1 #b0))) 
(define-fun |s420#36| ((state |s420_s|)) (_ BitVec 1) (bvor (|s420#34| state) (|s420#35| state))) 
(define-fun |s420#37| ((state |s420_s|)) (_ BitVec 1) (bvand (|s420#32| state) (|s420#36| state))) 
(define-fun |s420#38| ((state |s420_s|)) (_ BitVec 1) (bvnot (ite (|s420#19| state) #b1 #b0))) 
(define-fun |s420#39| ((state |s420_s|)) (_ BitVec 1) (bvor (|s420#38| state) (|s420#24| state))) 
(define-fun |s420#40| ((state |s420_s|)) (_ BitVec 1) (bvnot (|s420#39| state))) 
(define-fun |s420#41| ((state |s420_s|)) (_ BitVec 1) (bvand (|s420#40| state) (ite (|s420#2| state) #b1 #b0))) 
(define-fun |s420#42| ((state |s420_s|)) (_ BitVec 1) (bvand (ite (|s420#19| state) #b1 #b0) (ite (|s420#1| state) #b1 #b0))) 
(define-fun |s420#43| ((state |s420_s|)) (_ BitVec 1) (bvor (|s420#41| state) (|s420#42| state))) 
(define-fun |s420#44| ((state |s420_s|)) (_ BitVec 1) (bvnot (|s420#43| state))) 
(define-fun |s420#45| ((state |s420_s|)) (_ BitVec 1) (bvand (|s420#37| state) (|s420#44| state))) 
(define-fun |s420#46| ((state |s420_s|)) (_ BitVec 1) (bvnot (|s420#45| state))) 


(declare-fun |s420#47| (|s420_s|) Bool) 
(declare-fun |s420_h DFF_0| (|s420_s|) |dff_s|)
(define-fun |s420#48| ((state |s420_s|)) (_ BitVec 1) (bvor (ite (|s420#47| state) #b1 #b0) (ite (|s420#26| state) #b1 #b0))) 
(define-fun |s420#49| ((state |s420_s|)) (_ BitVec 1) (bvor (|s420#48| state) (ite (|s420#21| state) #b1 #b0))) 
(define-fun |s420#50| ((state |s420_s|)) (_ BitVec 1) (bvor (|s420#49| state) (ite (|s420#23| state) #b1 #b0))) 
(define-fun |s420#51| ((state |s420_s|)) (_ BitVec 1) (bvnot (|s420#50| state))) 


(declare-fun |s420#52| (|s420_s|) Bool) 
(declare-fun |s420_h DFF_5| (|s420_s|) |dff_s|)
(define-fun |s420#53| ((state |s420_s|)) (_ BitVec 1) (bvnot (ite (|s420#52| state) #b1 #b0))) 


(declare-fun |s420#54| (|s420_s|) Bool) 
(declare-fun |s420_h DFF_7| (|s420_s|) |dff_s|)
(define-fun |s420#55| ((state |s420_s|)) (_ BitVec 1) (bvnot (ite (|s420#54| state) #b1 #b0))) 
(define-fun |s420#56| ((state |s420_s|)) (_ BitVec 1) (bvand (|s420#55| state) (ite (|s420#19| state) #b1 #b0))) 


(declare-fun |s420#57| (|s420_s|) Bool) 
(declare-fun |s420_h DFF_6| (|s420_s|) |dff_s|)
(define-fun |s420#58| ((state |s420_s|)) (_ BitVec 1) (bvnot (ite (|s420#57| state) #b1 #b0))) 
(define-fun |s420#59| ((state |s420_s|)) (_ BitVec 1) (bvand (|s420#56| state) (|s420#58| state))) 
(define-fun |s420#60| ((state |s420_s|)) (_ BitVec 1) (bvnot (|s420#59| state))) 
(define-fun |s420#61| ((state |s420_s|)) (_ BitVec 1) (bvor (|s420#53| state) (|s420#60| state))) 
(define-fun |s420#62| ((state |s420_s|)) (_ BitVec 1) (bvnot (|s420#61| state))) 
(define-fun |s420#63| ((state |s420_s|)) (_ BitVec 1) (bvand (|s420#51| state) (|s420#62| state))) 
(define-fun |s420#64| ((state |s420_s|)) (_ BitVec 1) (bvnot (|s420#63| state))) 
(define-fun |s420#65| ((state |s420_s|)) (_ BitVec 1) (bvnot (ite (|s420#15| state) #b1 #b0))) 
(define-fun |s420#66| ((state |s420_s|)) (_ BitVec 1) (bvor (|s420#64| state) (|s420#65| state))) 
(define-fun |s420#67| ((state |s420_s|)) (_ BitVec 1) (bvnot (|s420#56| state))) 
(define-fun |s420#68| ((state |s420_s|)) (_ BitVec 1) (bvor (|s420#58| state) (|s420#67| state))) 
(define-fun |s420#69| ((state |s420_s|)) (_ BitVec 1) (bvnot (|s420#68| state))) 
(define-fun |s420#70| ((state |s420_s|)) (_ BitVec 1) (bvand (|s420#51| state) (|s420#69| state))) 
(define-fun |s420#71| ((state |s420_s|)) (_ BitVec 1) (bvnot (|s420#70| state))) 
(define-fun |s420#72| ((state |s420_s|)) (_ BitVec 1) (bvnot (ite (|s420#14| state) #b1 #b0))) 
(define-fun |s420#73| ((state |s420_s|)) (_ BitVec 1) (bvor (|s420#71| state) (|s420#72| state))) 
(define-fun |s420#74| ((state |s420_s|)) (_ BitVec 1) (bvand (|s420#66| state) (|s420#73| state))) 
(define-fun |s420#75| ((state |s420_s|)) (_ BitVec 1) (bvor (|s420#38| state) (|s420#55| state))) 
(define-fun |s420#76| ((state |s420_s|)) (_ BitVec 1) (bvnot (|s420#75| state))) 
(define-fun |s420#77| ((state |s420_s|)) (_ BitVec 1) (bvand (|s420#51| state) (|s420#76| state))) 
(define-fun |s420#78| ((state |s420_s|)) (_ BitVec 1) (bvand (|s420#77| state) (ite (|s420#13| state) #b1 #b0))) 
(define-fun |s420#79| ((state |s420_s|)) (_ BitVec 1) (bvor (ite (|s420#21| state) #b1 #b0) (|s420#29| state))) 
(define-fun |s420#80| ((state |s420_s|)) (_ BitVec 1) (bvnot (ite (|s420#47| state) #b1 #b0))) 
(define-fun |s420#81| ((state |s420_s|)) (_ BitVec 1) (bvor (|s420#79| state) (|s420#80| state))) 
(define-fun |s420#82| ((state |s420_s|)) (_ BitVec 1) (bvnot (|s420#81| state))) 
(define-fun |s420#83| ((state |s420_s|)) (_ BitVec 1) (bvand (|s420#82| state) (ite (|s420#12| state) #b1 #b0))) 
(define-fun |s420#84| ((state |s420_s|)) (_ BitVec 1) (bvor (|s420#78| state) (|s420#83| state))) 
(define-fun |s420#85| ((state |s420_s|)) (_ BitVec 1) (bvnot (|s420#84| state))) 
(define-fun |s420#86| ((state |s420_s|)) (_ BitVec 1) (bvand (|s420#74| state) (|s420#85| state))) 
(define-fun |s420#87| ((state |s420_s|)) (_ BitVec 1) (bvnot (|s420#86| state))) 
(define-fun |s420#88| ((state |s420_s|)) (_ BitVec 1) (bvor (|s420#46| state) (|s420#87| state))) 


(declare-fun |s420#89| (|s420_s|) Bool) 
(declare-fun |s420_h DFF_4| (|s420_s|) |dff_s|)
(define-fun |s420#90| ((state |s420_s|)) (_ BitVec 1) (bvor (ite (|s420#89| state) #b1 #b0) (ite (|s420#57| state) #b1 #b0))) 
(define-fun |s420#91| ((state |s420_s|)) (_ BitVec 1) (bvor (|s420#90| state) (ite (|s420#52| state) #b1 #b0))) 
(define-fun |s420#92| ((state |s420_s|)) (_ BitVec 1) (bvor (|s420#91| state) (ite (|s420#54| state) #b1 #b0))) 
(define-fun |s420#93| ((state |s420_s|)) (_ BitVec 1) (bvnot (|s420#92| state))) 
(define-fun |s420#94| ((state |s420_s|)) (_ BitVec 1) (bvand (|s420#51| state) (|s420#93| state))) 


(declare-fun |s420#95| (|s420_s|) Bool) 
(declare-fun |s420_h DFF_9| (|s420_s|) |dff_s|)
(define-fun |s420#96| ((state |s420_s|)) (_ BitVec 1) (bvnot (ite (|s420#95| state) #b1 #b0))) 


(declare-fun |s420#97| (|s420_s|) Bool) 
(declare-fun |s420_h DFF_11| (|s420_s|) |dff_s|)
(define-fun |s420#98| ((state |s420_s|)) (_ BitVec 1) (bvnot (ite (|s420#97| state) #b1 #b0))) 
(define-fun |s420#99| ((state |s420_s|)) (_ BitVec 1) (bvand (|s420#98| state) (ite (|s420#19| state) #b1 #b0))) 


(declare-fun |s420#100| (|s420_s|) Bool) 
(declare-fun |s420_h DFF_10| (|s420_s|) |dff_s|)
(define-fun |s420#101| ((state |s420_s|)) (_ BitVec 1) (bvnot (ite (|s420#100| state) #b1 #b0))) 
(define-fun |s420#102| ((state |s420_s|)) (_ BitVec 1) (bvand (|s420#99| state) (|s420#101| state))) 
(define-fun |s420#103| ((state |s420_s|)) (_ BitVec 1) (bvnot (|s420#102| state))) 
(define-fun |s420#104| ((state |s420_s|)) (_ BitVec 1) (bvor (|s420#96| state) (|s420#103| state))) 
(define-fun |s420#105| ((state |s420_s|)) (_ BitVec 1) (bvnot (|s420#104| state))) 
(define-fun |s420#106| ((state |s420_s|)) (_ BitVec 1) (bvand (|s420#94| state) (|s420#105| state))) 
(define-fun |s420#107| ((state |s420_s|)) (_ BitVec 1) (bvnot (|s420#106| state))) 
(define-fun |s420#108| ((state |s420_s|)) (_ BitVec 1) (bvnot (ite (|s420#4| state) #b1 #b0))) 
(define-fun |s420#109| ((state |s420_s|)) (_ BitVec 1) (bvor (|s420#107| state) (|s420#108| state))) 
(define-fun |s420#110| ((state |s420_s|)) (_ BitVec 1) (bvnot (|s420#99| state))) 
(define-fun |s420#111| ((state |s420_s|)) (_ BitVec 1) (bvor (|s420#101| state) (|s420#110| state))) 
(define-fun |s420#112| ((state |s420_s|)) (_ BitVec 1) (bvnot (|s420#111| state))) 
(define-fun |s420#113| ((state |s420_s|)) (_ BitVec 1) (bvand (|s420#94| state) (|s420#112| state))) 
(define-fun |s420#114| ((state |s420_s|)) (_ BitVec 1) (bvnot (|s420#113| state))) 
(define-fun |s420#115| ((state |s420_s|)) (_ BitVec 1) (bvnot (ite (|s420#3| state) #b1 #b0))) 
(define-fun |s420#116| ((state |s420_s|)) (_ BitVec 1) (bvor (|s420#114| state) (|s420#115| state))) 
(define-fun |s420#117| ((state |s420_s|)) (_ BitVec 1) (bvand (|s420#109| state) (|s420#116| state))) 
(define-fun |s420#118| ((state |s420_s|)) (_ BitVec 1) (bvor (|s420#38| state) (|s420#98| state))) 
(define-fun |s420#119| ((state |s420_s|)) (_ BitVec 1) (bvnot (|s420#118| state))) 
(define-fun |s420#120| ((state |s420_s|)) (_ BitVec 1) (bvand (|s420#94| state) (|s420#119| state))) 
(define-fun |s420#121| ((state |s420_s|)) (_ BitVec 1) (bvand (|s420#120| state) (ite (|s420#17| state) #b1 #b0))) 
(define-fun |s420#122| ((state |s420_s|)) (_ BitVec 1) (bvor (ite (|s420#52| state) #b1 #b0) (|s420#60| state))) 
(define-fun |s420#123| ((state |s420_s|)) (_ BitVec 1) (bvnot (ite (|s420#89| state) #b1 #b0))) 
(define-fun |s420#124| ((state |s420_s|)) (_ BitVec 1) (bvor (|s420#122| state) (|s420#123| state))) 
(define-fun |s420#125| ((state |s420_s|)) (_ BitVec 1) (bvnot (|s420#124| state))) 
(define-fun |s420#126| ((state |s420_s|)) (_ BitVec 1) (bvand (|s420#51| state) (|s420#125| state))) 
(define-fun |s420#127| ((state |s420_s|)) (_ BitVec 1) (bvand (|s420#126| state) (ite (|s420#16| state) #b1 #b0))) 
(define-fun |s420#128| ((state |s420_s|)) (_ BitVec 1) (bvor (|s420#121| state) (|s420#127| state))) 
(define-fun |s420#129| ((state |s420_s|)) (_ BitVec 1) (bvnot (|s420#128| state))) 
(define-fun |s420#130| ((state |s420_s|)) (_ BitVec 1) (bvand (|s420#117| state) (|s420#129| state))) 
(define-fun |s420#131| ((state |s420_s|)) (_ BitVec 1) (bvnot (|s420#130| state))) 
(define-fun |s420#132| ((state |s420_s|)) (_ BitVec 1) (bvor (|s420#88| state) (|s420#131| state))) 


(declare-fun |s420#133| (|s420_s|) Bool) 
(declare-fun |s420_h DFF_8| (|s420_s|) |dff_s|)
(define-fun |s420#134| ((state |s420_s|)) (_ BitVec 1) (bvor (ite (|s420#133| state) #b1 #b0) (ite (|s420#100| state) #b1 #b0))) 
(define-fun |s420#135| ((state |s420_s|)) (_ BitVec 1) (bvor (|s420#134| state) (ite (|s420#95| state) #b1 #b0))) 
(define-fun |s420#136| ((state |s420_s|)) (_ BitVec 1) (bvor (|s420#135| state) (ite (|s420#97| state) #b1 #b0))) 
(define-fun |s420#137| ((state |s420_s|)) (_ BitVec 1) (bvnot (|s420#136| state))) 
(define-fun |s420#138| ((state |s420_s|)) (_ BitVec 1) (bvand (|s420#94| state) (|s420#137| state))) 


(declare-fun |s420#139| (|s420_s|) Bool) 
(declare-fun |s420_h DFF_13| (|s420_s|) |dff_s|)
(define-fun |s420#140| ((state |s420_s|)) (_ BitVec 1) (bvnot (ite (|s420#139| state) #b1 #b0))) 


(declare-fun |s420#141| (|s420_s|) Bool) 
(declare-fun |s420_h DFF_15| (|s420_s|) |dff_s|)
(define-fun |s420#142| ((state |s420_s|)) (_ BitVec 1) (bvnot (ite (|s420#141| state) #b1 #b0))) 
(define-fun |s420#143| ((state |s420_s|)) (_ BitVec 1) (bvand (|s420#142| state) (ite (|s420#19| state) #b1 #b0))) 


(declare-fun |s420#144| (|s420_s|) Bool) 
(declare-fun |s420_h DFF_14| (|s420_s|) |dff_s|)
(define-fun |s420#145| ((state |s420_s|)) (_ BitVec 1) (bvnot (ite (|s420#144| state) #b1 #b0))) 
(define-fun |s420#146| ((state |s420_s|)) (_ BitVec 1) (bvand (|s420#143| state) (|s420#145| state))) 
(define-fun |s420#147| ((state |s420_s|)) (_ BitVec 1) (bvnot (|s420#146| state))) 
(define-fun |s420#148| ((state |s420_s|)) (_ BitVec 1) (bvor (|s420#140| state) (|s420#147| state))) 
(define-fun |s420#149| ((state |s420_s|)) (_ BitVec 1) (bvnot (|s420#148| state))) 
(define-fun |s420#150| ((state |s420_s|)) (_ BitVec 1) (bvand (|s420#138| state) (|s420#149| state))) 
(define-fun |s420#151| ((state |s420_s|)) (_ BitVec 1) (bvnot (|s420#150| state))) 
(define-fun |s420#152| ((state |s420_s|)) (_ BitVec 1) (bvnot (ite (|s420#8| state) #b1 #b0))) 
(define-fun |s420#153| ((state |s420_s|)) (_ BitVec 1) (bvor (|s420#151| state) (|s420#152| state))) 
(define-fun |s420#154| ((state |s420_s|)) (_ BitVec 1) (bvnot (|s420#143| state))) 
(define-fun |s420#155| ((state |s420_s|)) (_ BitVec 1) (bvor (|s420#145| state) (|s420#154| state))) 
(define-fun |s420#156| ((state |s420_s|)) (_ BitVec 1) (bvnot (|s420#155| state))) 
(define-fun |s420#157| ((state |s420_s|)) (_ BitVec 1) (bvand (|s420#138| state) (|s420#156| state))) 
(define-fun |s420#158| ((state |s420_s|)) (_ BitVec 1) (bvnot (|s420#157| state))) 
(define-fun |s420#159| ((state |s420_s|)) (_ BitVec 1) (bvnot (ite (|s420#7| state) #b1 #b0))) 
(define-fun |s420#160| ((state |s420_s|)) (_ BitVec 1) (bvor (|s420#158| state) (|s420#159| state))) 
(define-fun |s420#161| ((state |s420_s|)) (_ BitVec 1) (bvand (|s420#153| state) (|s420#160| state))) 
(define-fun |s420#162| ((state |s420_s|)) (_ BitVec 1) (bvor (|s420#38| state) (|s420#142| state))) 
(define-fun |s420#163| ((state |s420_s|)) (_ BitVec 1) (bvnot (|s420#162| state))) 
(define-fun |s420#164| ((state |s420_s|)) (_ BitVec 1) (bvand (|s420#138| state) (|s420#163| state))) 
(define-fun |s420#165| ((state |s420_s|)) (_ BitVec 1) (bvand (|s420#164| state) (ite (|s420#6| state) #b1 #b0))) 
(define-fun |s420#166| ((state |s420_s|)) (_ BitVec 1) (bvor (ite (|s420#95| state) #b1 #b0) (|s420#103| state))) 
(define-fun |s420#167| ((state |s420_s|)) (_ BitVec 1) (bvnot (ite (|s420#133| state) #b1 #b0))) 
(define-fun |s420#168| ((state |s420_s|)) (_ BitVec 1) (bvor (|s420#166| state) (|s420#167| state))) 
(define-fun |s420#169| ((state |s420_s|)) (_ BitVec 1) (bvnot (|s420#168| state))) 
(define-fun |s420#170| ((state |s420_s|)) (_ BitVec 1) (bvand (|s420#94| state) (|s420#169| state))) 
(define-fun |s420#171| ((state |s420_s|)) (_ BitVec 1) (bvand (|s420#170| state) (ite (|s420#5| state) #b1 #b0))) 
(define-fun |s420#172| ((state |s420_s|)) (_ BitVec 1) (bvor (|s420#165| state) (|s420#171| state))) 
(define-fun |s420#173| ((state |s420_s|)) (_ BitVec 1) (bvnot (|s420#172| state))) 
(define-fun |s420#174| ((state |s420_s|)) (_ BitVec 1) (bvand (|s420#161| state) (|s420#173| state))) 
(define-fun |s420#175| ((state |s420_s|)) (_ BitVec 1) (bvnot (|s420#174| state))) 
(define-fun |s420#176| ((state |s420_s|)) (_ BitVec 1) (bvor (|s420#132| state) (|s420#175| state))) 
(define-fun |s420#177| ((state |s420_s|)) (_ BitVec 1) (bvor (ite (|s420#139| state) #b1 #b0) (|s420#147| state))) 


(declare-fun |s420#178| (|s420_s|) Bool) 
(declare-fun |s420_h DFF_12| (|s420_s|) |dff_s|)
(define-fun |s420#179| ((state |s420_s|)) (_ BitVec 1) (bvnot (ite (|s420#178| state) #b1 #b0))) 
(define-fun |s420#180| ((state |s420_s|)) (_ BitVec 1) (bvor (|s420#177| state) (|s420#179| state))) 
(define-fun |s420#181| ((state |s420_s|)) (_ BitVec 1) (bvnot (|s420#180| state))) 
(define-fun |s420#182| ((state |s420_s|)) (_ BitVec 1) (bvand (|s420#138| state) (|s420#181| state))) 
(define-fun |s420#183| ((state |s420_s|)) (_ BitVec 1) (bvand (|s420#182| state) (ite (|s420#9| state) #b1 #b0))) 
(define-fun |s420#184| ((state |s420_s|)) (_ BitVec 1) (bvor (|s420#176| state) (|s420#183| state))) 

(define-fun |s420_n Z| ((state |s420_s|)) Bool (= ((_ extract 0 0) (|s420#184| state)) #b1))
(define-fun |s420#185| ((state |s420_s|)) (_ BitVec 1) (bvand (ite (|s420#23| state) #b1 #b0) (ite (|s420#26| state) #b1 #b0))) 
(define-fun |s420#186| ((state |s420_s|)) (_ BitVec 1) (bvnot (|s420#185| state))) 
(define-fun |s420#187| ((state |s420_s|)) (_ BitVec 1) (bvor (|s420#186| state) (|s420#38| state))) 
(define-fun |s420#188| ((state |s420_s|)) (_ BitVec 1) (bvnot (|s420#187| state))) 
(define-fun |s420#189| ((state |s420_s|)) (_ BitVec 1) (bvand (|s420#188| state) (|s420#22| state))) 
(define-fun |s420#190| ((state |s420_s|)) (_ BitVec 1) (bvand (ite (|s420#21| state) #b1 #b0) (|s420#187| state))) 
(define-fun |s420#191| ((state |s420_s|)) (_ BitVec 1) (bvor (|s420#189| state) (|s420#190| state))) 
(define-fun |s420#192| ((state |s420_s|)) (_ BitVec 1) (bvand (ite (|s420#23| state) #b1 #b0) (ite (|s420#19| state) #b1 #b0))) 
(define-fun |s420#193| ((state |s420_s|)) (_ BitVec 1) (bvnot (|s420#192| state))) 
(define-fun |s420#194| ((state |s420_s|)) (_ BitVec 1) (bvand (|s420#193| state) (|s420#27| state))) 
(define-fun |s420#195| ((state |s420_s|)) (_ BitVec 1) (bvand (ite (|s420#26| state) #b1 #b0) (|s420#192| state))) 
(define-fun |s420#196| ((state |s420_s|)) (_ BitVec 1) (bvor (|s420#194| state) (|s420#195| state))) 
(define-fun |s420#197| ((state |s420_s|)) (_ BitVec 1) (bvnot (|s420#196| state))) 
(define-fun |s420#198| ((state |s420_s|)) (_ BitVec 1) (bvor (|s420#187| state) (ite (|s420#47| state) #b1 #b0))) 
(define-fun |s420#199| ((state |s420_s|)) (_ BitVec 1) (bvor (|s420#198| state) (|s420#22| state))) 
(define-fun |s420#200| ((state |s420_s|)) (_ BitVec 1) (bvor (|s420#186| state) (|s420#22| state))) 
(define-fun |s420#201| ((state |s420_s|)) (_ BitVec 1) (bvor (|s420#200| state) (|s420#38| state))) 
(define-fun |s420#202| ((state |s420_s|)) (_ BitVec 1) (bvand (|s420#201| state) (ite (|s420#47| state) #b1 #b0))) 
(define-fun |s420#203| ((state |s420_s|)) (_ BitVec 1) (bvnot (|s420#202| state))) 
(define-fun |s420#204| ((state |s420_s|)) (_ BitVec 1) (bvand (|s420#199| state) (|s420#203| state))) 
(define-fun |s420#205| ((state |s420_s|)) (_ BitVec 1) (bvnot (|s420#204| state))) 
(define-fun |s420#206| ((state |s420_s|)) (_ BitVec 1) (bvand (ite (|s420#23| state) #b1 #b0) (|s420#38| state))) 
(define-fun |s420#207| ((state |s420_s|)) (_ BitVec 1) (bvor (|s420#206| state) (|s420#25| state))) 
(define-fun |s420#208| ((state |s420_s|)) (_ BitVec 1) (bvand (ite (|s420#54| state) #b1 #b0) (ite (|s420#57| state) #b1 #b0))) 
(define-fun |s420#209| ((state |s420_s|)) (_ BitVec 1) (bvnot (|s420#208| state))) 
(define-fun |s420#210| ((state |s420_s|)) (_ BitVec 1) (bvor (|s420#186| state) (|s420#80| state))) 
(define-fun |s420#211| ((state |s420_s|)) (_ BitVec 1) (bvor (|s420#210| state) (|s420#22| state))) 
(define-fun |s420#212| ((state |s420_s|)) (_ BitVec 1) (bvnot (|s420#211| state))) 
(define-fun |s420#213| ((state |s420_s|)) (_ BitVec 1) (bvand (|s420#212| state) (ite (|s420#19| state) #b1 #b0))) 
(define-fun |s420#214| ((state |s420_s|)) (_ BitVec 1) (bvnot (|s420#213| state))) 
(define-fun |s420#215| ((state |s420_s|)) (_ BitVec 1) (bvor (|s420#209| state) (|s420#214| state))) 
(define-fun |s420#216| ((state |s420_s|)) (_ BitVec 1) (bvor (|s420#215| state) (ite (|s420#89| state) #b1 #b0))) 
(define-fun |s420#217| ((state |s420_s|)) (_ BitVec 1) (bvor (|s420#216| state) (|s420#53| state))) 
(define-fun |s420#218| ((state |s420_s|)) (_ BitVec 1) (bvor (|s420#209| state) (|s420#53| state))) 
(define-fun |s420#219| ((state |s420_s|)) (_ BitVec 1) (bvor (|s420#218| state) (|s420#214| state))) 
(define-fun |s420#220| ((state |s420_s|)) (_ BitVec 1) (bvand (|s420#219| state) (ite (|s420#89| state) #b1 #b0))) 
(define-fun |s420#221| ((state |s420_s|)) (_ BitVec 1) (bvnot (|s420#220| state))) 
(define-fun |s420#222| ((state |s420_s|)) (_ BitVec 1) (bvand (|s420#217| state) (|s420#221| state))) 
(define-fun |s420#223| ((state |s420_s|)) (_ BitVec 1) (bvnot (|s420#222| state))) 
(define-fun |s420#224| ((state |s420_s|)) (_ BitVec 1) (bvand (ite (|s420#97| state) #b1 #b0) (ite (|s420#100| state) #b1 #b0))) 
(define-fun |s420#225| ((state |s420_s|)) (_ BitVec 1) (bvnot (|s420#224| state))) 
(define-fun |s420#226| ((state |s420_s|)) (_ BitVec 1) (bvor (|s420#209| state) (|s420#123| state))) 
(define-fun |s420#227| ((state |s420_s|)) (_ BitVec 1) (bvor (|s420#226| state) (|s420#53| state))) 
(define-fun |s420#228| ((state |s420_s|)) (_ BitVec 1) (bvnot (|s420#227| state))) 
(define-fun |s420#229| ((state |s420_s|)) (_ BitVec 1) (bvand (|s420#228| state) (|s420#213| state))) 
(define-fun |s420#230| ((state |s420_s|)) (_ BitVec 1) (bvnot (|s420#229| state))) 
(define-fun |s420#231| ((state |s420_s|)) (_ BitVec 1) (bvor (|s420#225| state) (|s420#230| state))) 
(define-fun |s420#232| ((state |s420_s|)) (_ BitVec 1) (bvnot (|s420#231| state))) 
(define-fun |s420#233| ((state |s420_s|)) (_ BitVec 1) (bvand (|s420#232| state) (|s420#96| state))) 
(define-fun |s420#234| ((state |s420_s|)) (_ BitVec 1) (bvand (ite (|s420#95| state) #b1 #b0) (|s420#231| state))) 
(define-fun |s420#235| ((state |s420_s|)) (_ BitVec 1) (bvor (|s420#233| state) (|s420#234| state))) 
(define-fun |s420#236| ((state |s420_s|)) (_ BitVec 1) (bvnot (|s420#215| state))) 
(define-fun |s420#237| ((state |s420_s|)) (_ BitVec 1) (bvand (|s420#236| state) (|s420#53| state))) 
(define-fun |s420#238| ((state |s420_s|)) (_ BitVec 1) (bvand (ite (|s420#52| state) #b1 #b0) (|s420#215| state))) 
(define-fun |s420#239| ((state |s420_s|)) (_ BitVec 1) (bvor (|s420#237| state) (|s420#238| state))) 
(define-fun |s420#240| ((state |s420_s|)) (_ BitVec 1) (bvand (ite (|s420#54| state) #b1 #b0) (|s420#213| state))) 
(define-fun |s420#241| ((state |s420_s|)) (_ BitVec 1) (bvnot (|s420#240| state))) 
(define-fun |s420#242| ((state |s420_s|)) (_ BitVec 1) (bvand (|s420#241| state) (|s420#58| state))) 
(define-fun |s420#243| ((state |s420_s|)) (_ BitVec 1) (bvand (ite (|s420#57| state) #b1 #b0) (|s420#240| state))) 
(define-fun |s420#244| ((state |s420_s|)) (_ BitVec 1) (bvor (|s420#242| state) (|s420#243| state))) 
(define-fun |s420#245| ((state |s420_s|)) (_ BitVec 1) (bvnot (|s420#244| state))) 
(define-fun |s420#246| ((state |s420_s|)) (_ BitVec 1) (bvand (ite (|s420#54| state) #b1 #b0) (|s420#214| state))) 
(define-fun |s420#247| ((state |s420_s|)) (_ BitVec 1) (bvand (|s420#213| state) (|s420#55| state))) 
(define-fun |s420#248| ((state |s420_s|)) (_ BitVec 1) (bvor (|s420#246| state) (|s420#247| state))) 
(define-fun |s420#249| ((state |s420_s|)) (_ BitVec 1) (bvor (|s420#231| state) (ite (|s420#133| state) #b1 #b0))) 
(define-fun |s420#250| ((state |s420_s|)) (_ BitVec 1) (bvor (|s420#249| state) (|s420#96| state))) 
(define-fun |s420#251| ((state |s420_s|)) (_ BitVec 1) (bvor (|s420#225| state) (|s420#96| state))) 
(define-fun |s420#252| ((state |s420_s|)) (_ BitVec 1) (bvor (|s420#251| state) (|s420#230| state))) 
(define-fun |s420#253| ((state |s420_s|)) (_ BitVec 1) (bvand (|s420#252| state) (ite (|s420#133| state) #b1 #b0))) 
(define-fun |s420#254| ((state |s420_s|)) (_ BitVec 1) (bvnot (|s420#253| state))) 
(define-fun |s420#255| ((state |s420_s|)) (_ BitVec 1) (bvand (|s420#250| state) (|s420#254| state))) 
(define-fun |s420#256| ((state |s420_s|)) (_ BitVec 1) (bvnot (|s420#255| state))) 
(define-fun |s420#257| ((state |s420_s|)) (_ BitVec 1) (bvand (ite (|s420#97| state) #b1 #b0) (|s420#229| state))) 
(define-fun |s420#258| ((state |s420_s|)) (_ BitVec 1) (bvnot (|s420#257| state))) 
(define-fun |s420#259| ((state |s420_s|)) (_ BitVec 1) (bvand (|s420#258| state) (|s420#101| state))) 
(define-fun |s420#260| ((state |s420_s|)) (_ BitVec 1) (bvand (ite (|s420#100| state) #b1 #b0) (|s420#257| state))) 
(define-fun |s420#261| ((state |s420_s|)) (_ BitVec 1) (bvor (|s420#259| state) (|s420#260| state))) 
(define-fun |s420#262| ((state |s420_s|)) (_ BitVec 1) (bvnot (|s420#261| state))) 
(define-fun |s420#263| ((state |s420_s|)) (_ BitVec 1) (bvand (ite (|s420#97| state) #b1 #b0) (|s420#230| state))) 
(define-fun |s420#264| ((state |s420_s|)) (_ BitVec 1) (bvand (|s420#229| state) (|s420#98| state))) 
(define-fun |s420#265| ((state |s420_s|)) (_ BitVec 1) (bvor (|s420#263| state) (|s420#264| state))) 
(define-fun |s420#266| ((state |s420_s|)) (_ BitVec 1) (bvor (|s420#225| state) (|s420#167| state))) 
(define-fun |s420#267| ((state |s420_s|)) (_ BitVec 1) (bvor (|s420#266| state) (|s420#96| state))) 
(define-fun |s420#268| ((state |s420_s|)) (_ BitVec 1) (bvnot (|s420#267| state))) 
(define-fun |s420#269| ((state |s420_s|)) (_ BitVec 1) (bvand (|s420#268| state) (|s420#229| state))) 
(define-fun |s420#270| ((state |s420_s|)) (_ BitVec 1) (bvand (ite (|s420#141| state) #b1 #b0) (|s420#269| state))) 
(define-fun |s420#271| ((state |s420_s|)) (_ BitVec 1) (bvand (|s420#270| state) (ite (|s420#144| state) #b1 #b0))) 
(define-fun |s420#272| ((state |s420_s|)) (_ BitVec 1) (bvnot (|s420#271| state))) 
(define-fun |s420#273| ((state |s420_s|)) (_ BitVec 1) (bvor (|s420#272| state) (ite (|s420#178| state) #b1 #b0))) 
(define-fun |s420#274| ((state |s420_s|)) (_ BitVec 1) (bvor (|s420#273| state) (|s420#140| state))) 
(define-fun |s420#275| ((state |s420_s|)) (_ BitVec 1) (bvnot (|s420#270| state))) 
(define-fun |s420#276| ((state |s420_s|)) (_ BitVec 1) (bvor (|s420#275| state) (|s420#145| state))) 
(define-fun |s420#277| ((state |s420_s|)) (_ BitVec 1) (bvor (|s420#276| state) (|s420#140| state))) 
(define-fun |s420#278| ((state |s420_s|)) (_ BitVec 1) (bvand (|s420#277| state) (ite (|s420#178| state) #b1 #b0))) 
(define-fun |s420#279| ((state |s420_s|)) (_ BitVec 1) (bvnot (|s420#278| state))) 
(define-fun |s420#280| ((state |s420_s|)) (_ BitVec 1) (bvand (|s420#274| state) (|s420#279| state))) 
(define-fun |s420#281| ((state |s420_s|)) (_ BitVec 1) (bvnot (|s420#280| state))) 
(define-fun |s420#282| ((state |s420_s|)) (_ BitVec 1) (bvor (|s420#272| state) (ite (|s420#139| state) #b1 #b0))) 
(define-fun |s420#283| ((state |s420_s|)) (_ BitVec 1) (bvor (|s420#140| state) (|s420#271| state))) 
(define-fun |s420#284| ((state |s420_s|)) (_ BitVec 1) (bvand (|s420#282| state) (|s420#283| state))) 
(define-fun |s420#285| ((state |s420_s|)) (_ BitVec 1) (bvnot (|s420#284| state))) 
(define-fun |s420#286| ((state |s420_s|)) (_ BitVec 1) (bvand (|s420#275| state) (|s420#145| state))) 
(define-fun |s420#287| ((state |s420_s|)) (_ BitVec 1) (bvor (|s420#286| state) (|s420#271| state))) 
(define-fun |s420#288| ((state |s420_s|)) (_ BitVec 1) (bvnot (|s420#287| state))) 
(define-fun |s420#289| ((state |s420_s|)) (_ BitVec 1) (bvnot (|s420#269| state))) 
(define-fun |s420#290| ((state |s420_s|)) (_ BitVec 1) (bvand (ite (|s420#141| state) #b1 #b0) (|s420#289| state))) 
(define-fun |s420#291| ((state |s420_s|)) (_ BitVec 1) (bvand (|s420#269| state) (|s420#142| state))) 
(define-fun |s420#292| ((state |s420_s|)) (_ BitVec 1) (bvor (|s420#290| state) (|s420#291| state))) 
(define-fun |s420_a| ((state |s420_s|)) Bool (and
  (|dff_a| (|s420_h DFF_1| state))
  (|dff_a| (|s420_h DFF_2| state))
  (|dff_a| (|s420_h DFF_0| state))
  (|dff_a| (|s420_h DFF_3| state))
  (|dff_a| (|s420_h DFF_4| state))
  (|dff_a| (|s420_h DFF_9| state))
  (|dff_a| (|s420_h DFF_5| state))
  (|dff_a| (|s420_h DFF_6| state))
  (|dff_a| (|s420_h DFF_7| state))
  (|dff_a| (|s420_h DFF_8| state))
  (|dff_a| (|s420_h DFF_10| state))
  (|dff_a| (|s420_h DFF_11| state))
  (|dff_a| (|s420_h DFF_12| state))
  (|dff_a| (|s420_h DFF_13| state))
  (|dff_a| (|s420_h DFF_14| state))
  (|dff_a| (|s420_h DFF_15| state))
))
(define-fun |s420_u| ((state |s420_s|)) Bool (and
  (|dff_u| (|s420_h DFF_1| state))
  (|dff_u| (|s420_h DFF_2| state))
  (|dff_u| (|s420_h DFF_0| state))
  (|dff_u| (|s420_h DFF_3| state))
  (|dff_u| (|s420_h DFF_4| state))
  (|dff_u| (|s420_h DFF_9| state))
  (|dff_u| (|s420_h DFF_5| state))
  (|dff_u| (|s420_h DFF_6| state))
  (|dff_u| (|s420_h DFF_7| state))
  (|dff_u| (|s420_h DFF_8| state))
  (|dff_u| (|s420_h DFF_10| state))
  (|dff_u| (|s420_h DFF_11| state))
  (|dff_u| (|s420_h DFF_12| state))
  (|dff_u| (|s420_h DFF_13| state))
  (|dff_u| (|s420_h DFF_14| state))
  (|dff_u| (|s420_h DFF_15| state))
))
(define-fun |s420_i| ((state |s420_s|)) Bool (and
  (|dff_i| (|s420_h DFF_1| state))
  (|dff_i| (|s420_h DFF_2| state))
  (|dff_i| (|s420_h DFF_0| state))
  (|dff_i| (|s420_h DFF_3| state))
  (|dff_i| (|s420_h DFF_4| state))
  (|dff_i| (|s420_h DFF_9| state))
  (|dff_i| (|s420_h DFF_5| state))
  (|dff_i| (|s420_h DFF_6| state))
  (|dff_i| (|s420_h DFF_7| state))
  (|dff_i| (|s420_h DFF_8| state))
  (|dff_i| (|s420_h DFF_10| state))
  (|dff_i| (|s420_h DFF_11| state))
  (|dff_i| (|s420_h DFF_12| state))
  (|dff_i| (|s420_h DFF_13| state))
  (|dff_i| (|s420_h DFF_14| state))
  (|dff_i| (|s420_h DFF_15| state))
))
(define-fun |s420_h| ((state |s420_s|)) Bool (and
  (= (|s420_is| state) (|dff_is| (|s420_h DFF_1| state)))
  (= (|s420#0| state) (|dff_n CK| (|s420_h DFF_1| state))) 
  (= (= ((_ extract 0 0) (|s420#191| state)) #b1) (|dff_n D| (|s420_h DFF_1| state))) 
  (= (|s420#21| state) (|dff_n Q| (|s420_h DFF_1| state))) 
  (= (|s420_is| state) (|dff_is| (|s420_h DFF_2| state)))
  (= (|s420#0| state) (|dff_n CK| (|s420_h DFF_2| state))) 
  (= (= ((_ extract 0 0) (|s420#197| state)) #b1) (|dff_n D| (|s420_h DFF_2| state))) 
  (= (|s420#26| state) (|dff_n Q| (|s420_h DFF_2| state))) 
  (= (|s420_is| state) (|dff_is| (|s420_h DFF_0| state)))
  (= (|s420#0| state) (|dff_n CK| (|s420_h DFF_0| state))) 
  (= (= ((_ extract 0 0) (|s420#205| state)) #b1) (|dff_n D| (|s420_h DFF_0| state))) 
  (= (|s420#47| state) (|dff_n Q| (|s420_h DFF_0| state))) 
  (= (|s420_is| state) (|dff_is| (|s420_h DFF_3| state)))
  (= (|s420#0| state) (|dff_n CK| (|s420_h DFF_3| state))) 
  (= (= ((_ extract 0 0) (|s420#207| state)) #b1) (|dff_n D| (|s420_h DFF_3| state))) 
  (= (|s420#23| state) (|dff_n Q| (|s420_h DFF_3| state))) 
  (= (|s420_is| state) (|dff_is| (|s420_h DFF_4| state)))
  (= (|s420#0| state) (|dff_n CK| (|s420_h DFF_4| state))) 
  (= (= ((_ extract 0 0) (|s420#223| state)) #b1) (|dff_n D| (|s420_h DFF_4| state))) 
  (= (|s420#89| state) (|dff_n Q| (|s420_h DFF_4| state))) 
  (= (|s420_is| state) (|dff_is| (|s420_h DFF_9| state)))
  (= (|s420#0| state) (|dff_n CK| (|s420_h DFF_9| state))) 
  (= (= ((_ extract 0 0) (|s420#235| state)) #b1) (|dff_n D| (|s420_h DFF_9| state))) 
  (= (|s420#95| state) (|dff_n Q| (|s420_h DFF_9| state))) 
  (= (|s420_is| state) (|dff_is| (|s420_h DFF_5| state)))
  (= (|s420#0| state) (|dff_n CK| (|s420_h DFF_5| state))) 
  (= (= ((_ extract 0 0) (|s420#239| state)) #b1) (|dff_n D| (|s420_h DFF_5| state))) 
  (= (|s420#52| state) (|dff_n Q| (|s420_h DFF_5| state))) 
  (= (|s420_is| state) (|dff_is| (|s420_h DFF_6| state)))
  (= (|s420#0| state) (|dff_n CK| (|s420_h DFF_6| state))) 
  (= (= ((_ extract 0 0) (|s420#245| state)) #b1) (|dff_n D| (|s420_h DFF_6| state))) 
  (= (|s420#57| state) (|dff_n Q| (|s420_h DFF_6| state))) 
  (= (|s420_is| state) (|dff_is| (|s420_h DFF_7| state)))
  (= (|s420#0| state) (|dff_n CK| (|s420_h DFF_7| state))) 
  (= (= ((_ extract 0 0) (|s420#248| state)) #b1) (|dff_n D| (|s420_h DFF_7| state))) 
  (= (|s420#54| state) (|dff_n Q| (|s420_h DFF_7| state))) 
  (= (|s420_is| state) (|dff_is| (|s420_h DFF_8| state)))
  (= (|s420#0| state) (|dff_n CK| (|s420_h DFF_8| state))) 
  (= (= ((_ extract 0 0) (|s420#256| state)) #b1) (|dff_n D| (|s420_h DFF_8| state))) 
  (= (|s420#133| state) (|dff_n Q| (|s420_h DFF_8| state))) 
  (= (|s420_is| state) (|dff_is| (|s420_h DFF_10| state)))
  (= (|s420#0| state) (|dff_n CK| (|s420_h DFF_10| state))) 
  (= (= ((_ extract 0 0) (|s420#262| state)) #b1) (|dff_n D| (|s420_h DFF_10| state))) 
  (= (|s420#100| state) (|dff_n Q| (|s420_h DFF_10| state))) 
  (= (|s420_is| state) (|dff_is| (|s420_h DFF_11| state)))
  (= (|s420#0| state) (|dff_n CK| (|s420_h DFF_11| state))) 
  (= (= ((_ extract 0 0) (|s420#265| state)) #b1) (|dff_n D| (|s420_h DFF_11| state))) 
  (= (|s420#97| state) (|dff_n Q| (|s420_h DFF_11| state))) 
  (= (|s420_is| state) (|dff_is| (|s420_h DFF_12| state)))
  (= (|s420#0| state) (|dff_n CK| (|s420_h DFF_12| state))) 
  (= (= ((_ extract 0 0) (|s420#281| state)) #b1) (|dff_n D| (|s420_h DFF_12| state))) 
  (= (|s420#178| state) (|dff_n Q| (|s420_h DFF_12| state))) 
  (= (|s420_is| state) (|dff_is| (|s420_h DFF_13| state)))
  (= (|s420#0| state) (|dff_n CK| (|s420_h DFF_13| state))) 
  (= (= ((_ extract 0 0) (|s420#285| state)) #b1) (|dff_n D| (|s420_h DFF_13| state))) 
  (= (|s420#139| state) (|dff_n Q| (|s420_h DFF_13| state))) 
  (= (|s420_is| state) (|dff_is| (|s420_h DFF_14| state)))
  (= (|s420#0| state) (|dff_n CK| (|s420_h DFF_14| state))) 
  (= (= ((_ extract 0 0) (|s420#288| state)) #b1) (|dff_n D| (|s420_h DFF_14| state))) 
  (= (|s420#144| state) (|dff_n Q| (|s420_h DFF_14| state))) 
  (= (|s420_is| state) (|dff_is| (|s420_h DFF_15| state)))
  (= (|s420#0| state) (|dff_n CK| (|s420_h DFF_15| state))) 
  (= (= ((_ extract 0 0) (|s420#292| state)) #b1) (|dff_n D| (|s420_h DFF_15| state))) 
  (= (|s420#141| state) (|dff_n Q| (|s420_h DFF_15| state))) 
  (|dff_h| (|s420_h DFF_1| state))
  (|dff_h| (|s420_h DFF_2| state))
  (|dff_h| (|s420_h DFF_0| state))
  (|dff_h| (|s420_h DFF_3| state))
  (|dff_h| (|s420_h DFF_4| state))
  (|dff_h| (|s420_h DFF_9| state))
  (|dff_h| (|s420_h DFF_5| state))
  (|dff_h| (|s420_h DFF_6| state))
  (|dff_h| (|s420_h DFF_7| state))
  (|dff_h| (|s420_h DFF_8| state))
  (|dff_h| (|s420_h DFF_10| state))
  (|dff_h| (|s420_h DFF_11| state))
  (|dff_h| (|s420_h DFF_12| state))
  (|dff_h| (|s420_h DFF_13| state))
  (|dff_h| (|s420_h DFF_14| state))
  (|dff_h| (|s420_h DFF_15| state))
))
(define-fun |s420_t| ((state |s420_s|) (next_state |s420_s|)) Bool (and
  (|dff_t| (|s420_h DFF_1| state) (|s420_h DFF_1| next_state))
  (|dff_t| (|s420_h DFF_2| state) (|s420_h DFF_2| next_state))
  (|dff_t| (|s420_h DFF_0| state) (|s420_h DFF_0| next_state))
  (|dff_t| (|s420_h DFF_3| state) (|s420_h DFF_3| next_state))
  (|dff_t| (|s420_h DFF_4| state) (|s420_h DFF_4| next_state))
  (|dff_t| (|s420_h DFF_9| state) (|s420_h DFF_9| next_state))
  (|dff_t| (|s420_h DFF_5| state) (|s420_h DFF_5| next_state))
  (|dff_t| (|s420_h DFF_6| state) (|s420_h DFF_6| next_state))
  (|dff_t| (|s420_h DFF_7| state) (|s420_h DFF_7| next_state))
  (|dff_t| (|s420_h DFF_8| state) (|s420_h DFF_8| next_state))
  (|dff_t| (|s420_h DFF_10| state) (|s420_h DFF_10| next_state))
  (|dff_t| (|s420_h DFF_11| state) (|s420_h DFF_11| next_state))
  (|dff_t| (|s420_h DFF_12| state) (|s420_h DFF_12| next_state))
  (|dff_t| (|s420_h DFF_13| state) (|s420_h DFF_13| next_state))
  (|dff_t| (|s420_h DFF_14| state) (|s420_h DFF_14| next_state))
  (|dff_t| (|s420_h DFF_15| state) (|s420_h DFF_15| next_state))
)) 

